48
1 0 48
2 0 39
2 1 35
3 0 29
3 1 52
3 2 58
4 0 52
4 1 19
4 2 24
4 3 4
5 0 55
5 1 37
5 2 22
5 3 2
5 4 16
6 0 57
6 1 42
6 2 53
6 3 18
6 4 58
6 5 31
7 0 48
7 1 32
7 2 21
7 3 10
7 4 19
7 5 5
7 6 32
8 0 41
8 1 16
8 2 9
8 3 12
8 4 43
8 5 56
8 6 38
8 7 51
9 0 3
9 1 33
9 2 8
9 3 21
9 4 3
9 5 26
9 6 49
9 7 59
9 8 51
10 0 4
10 1 11
10 2 15
10 3 11
10 4 4
10 5 25
10 6 56
10 7 56
10 8 47
10 9 2
11 0 45
11 1 54
11 2 7
11 3 60
11 4 39
11 5 31
11 6 36
11 7 24
11 8 55
11 9 18
11 10 58
12 0 34
12 1 11
12 2 23
12 3 41
12 4 3
12 5 19
12 6 18
12 7 12
12 8 46
12 9 42
12 10 4
12 11 1
13 0 36
13 1 16
13 2 11
13 3 25
13 4 48
13 5 34
13 6 42
13 7 58
13 8 21
13 9 25
13 10 9
13 11 56
13 12 53
14 0 11
14 1 37
14 2 60
14 3 54
14 4 29
14 5 1
14 6 16
14 7 32
14 8 6
14 9 50
14 10 17
14 11 45
14 12 18
14 13 38
15 0 32
15 1 12
15 2 44
15 3 9
15 4 43
15 5 40
15 6 52
15 7 41
15 8 36
15 9 58
15 10 20
15 11 9
15 12 37
15 13 7
15 14 52
16 0 12
16 1 5
16 2 27
16 3 39
16 4 57
16 5 55
16 6 27
16 7 8
16 8 23
16 9 13
16 10 38
16 11 51
16 12 34
16 13 5
16 14 6
16 15 34
17 0 5
17 1 32
17 2 15
17 3 2
17 4 20
17 5 22
17 6 30
17 7 59
17 8 43
17 9 20
17 10 53
17 11 8
17 12 46
17 13 58
17 14 8
17 15 31
17 16 48
18 0 4
18 1 28
18 2 18
18 3 32
18 4 26
18 5 13
18 6 52
18 7 53
18 8 29
18 9 53
18 10 44
18 11 51
18 12 58
18 13 35
18 14 1
18 15 7
18 16 40
18 17 40
19 0 58
19 1 57
19 2 60
19 3 4
19 4 1
19 5 14
19 6 48
19 7 47
19 8 34
19 9 4
19 10 41
19 11 16
19 12 6
19 13 7
19 14 56
19 15 52
19 16 30
19 17 28
19 18 37
20 0 40
20 1 48
20 2 55
20 3 24
20 4 4
20 5 34
20 6 56
20 7 26
20 8 9
20 9 34
20 10 36
20 11 11
20 12 40
20 13 43
20 14 17
20 15 49
20 16 4
20 17 14
20 18 60
20 19 4
21 0 13
21 1 29
21 2 30
21 3 13
21 4 21
21 5 5
21 6 39
21 7 43
21 8 26
21 9 8
21 10 44
21 11 54
21 12 26
21 13 44
21 14 39
21 15 19
21 16 39
21 17 2
21 18 57
21 19 59
21 20 16
22 0 35
22 1 35
22 2 28
22 3 55
22 4 44
22 5 32
22 6 38
22 7 50
22 8 12
22 9 35
22 10 28
22 11 50
22 12 15
22 13 23
22 14 11
22 15 7
22 16 3
22 17 4
22 18 47
22 19 55
22 20 1
22 21 10
23 0 33
23 1 20
23 2 21
23 3 56
23 4 9
23 5 43
23 6 5
23 7 53
23 8 30
23 9 38
23 10 16
23 11 23
23 12 32
23 13 25
23 14 6
23 15 38
23 16 15
23 17 19
23 18 10
23 19 8
23 20 60
23 21 20
23 22 16
24 0 49
24 1 52
24 2 4
24 3 9
24 4 12
24 5 22
24 6 47
24 7 19
24 8 20
24 9 3
24 10 7
24 11 47
24 12 14
24 13 38
24 14 48
24 15 24
24 16 23
24 17 43
24 18 17
24 19 4
24 20 20
24 21 22
24 22 21
24 23 54
25 0 15
25 1 54
25 2 51
25 3 29
25 4 23
25 5 47
25 6 22
25 7 19
25 8 31
25 9 32
25 10 24
25 11 30
25 12 55
25 13 49
25 14 11
25 15 58
25 16 26
25 17 29
25 18 29
25 19 58
25 20 32
25 21 50
25 22 53
25 23 44
25 24 46
26 0 33
26 1 20
26 2 2
26 3 46
26 4 20
26 5 5
26 6 44
26 7 37
26 8 38
26 9 13
26 10 59
26 11 31
26 12 26
26 13 27
26 14 60
26 15 48
26 16 52
26 17 55
26 18 30
26 19 60
26 20 8
26 21 53
26 22 1
26 23 14
26 24 58
26 25 59
27 0 1
27 1 13
27 2 30
27 3 17
27 4 20
27 5 50
27 6 34
27 7 59
27 8 22
27 9 55
27 10 38
27 11 59
27 12 60
27 13 30
27 14 45
27 15 26
27 16 26
27 17 6
27 18 26
27 19 53
27 20 6
27 21 30
27 22 24
27 23 55
27 24 23
27 25 5
27 26 17
28 0 7
28 1 7
28 2 57
28 3 2
28 4 52
28 5 41
28 6 58
28 7 30
28 8 29
28 9 24
28 10 52
28 11 22
28 12 22
28 13 38
28 14 47
28 15 39
28 16 23
28 17 24
28 18 3
28 19 7
28 20 43
28 21 54
28 22 57
28 23 36
28 24 37
28 25 1
28 26 46
28 27 53
29 0 8
29 1 31
29 2 33
29 3 40
29 4 32
29 5 52
29 6 10
29 7 5
29 8 2
29 9 42
29 10 45
29 11 12
29 12 7
29 13 26
29 14 25
29 15 57
29 16 29
29 17 20
29 18 6
29 19 22
29 20 29
29 21 18
29 22 45
29 23 44
29 24 23
29 25 12
29 26 6
29 27 30
29 28 12
30 0 13
30 1 6
30 2 43
30 3 35
30 4 50
30 5 26
30 6 30
30 7 5
30 8 13
30 9 44
30 10 43
30 11 55
30 12 16
30 13 36
30 14 54
30 15 52
30 16 39
30 17 21
30 18 13
30 19 9
30 20 13
30 21 12
30 22 49
30 23 12
30 24 7
30 25 17
30 26 57
30 27 43
30 28 13
30 29 37
31 0 44
31 1 37
31 2 33
31 3 10
31 4 22
31 5 31
31 6 15
31 7 20
31 8 13
31 9 55
31 10 56
31 11 40
31 12 13
31 13 24
31 14 24
31 15 37
31 16 12
31 17 19
31 18 23
31 19 39
31 20 16
31 21 48
31 22 44
31 23 56
31 24 27
31 25 9
31 26 47
31 27 29
31 28 3
31 29 57
31 30 25
32 0 36
32 1 31
32 2 20
32 3 41
32 4 45
32 5 42
32 6 21
32 7 6
32 8 20
32 9 52
32 10 20
32 11 57
32 12 4
32 13 55
32 14 46
32 15 19
32 16 52
32 17 27
32 18 57
32 19 34
32 20 22
32 21 53
32 22 29
32 23 24
32 24 33
32 25 32
32 26 31
32 27 7
32 28 12
32 29 32
32 30 5
32 31 12
33 0 2
33 1 57
33 2 2
33 3 36
33 4 38
33 5 30
33 6 28
33 7 27
33 8 51
33 9 33
33 10 37
33 11 49
33 12 2
33 13 34
33 14 30
33 15 56
33 16 14
33 17 9
33 18 56
33 19 60
33 20 30
33 21 55
33 22 44
33 23 14
33 24 39
33 25 36
33 26 57
33 27 12
33 28 15
33 29 33
33 30 51
33 31 18
33 32 41
34 0 30
34 1 38
34 2 52
34 3 32
34 4 46
34 5 16
34 6 36
34 7 38
34 8 49
34 9 1
34 10 2
34 11 33
34 12 52
34 13 17
34 14 11
34 15 22
34 16 18
34 17 9
34 18 52
34 19 57
34 20 40
34 21 28
34 22 9
34 23 5
34 24 49
34 25 30
34 26 51
34 27 17
34 28 21
34 29 37
34 30 12
34 31 4
34 32 21
34 33 11
35 0 6
35 1 58
35 2 13
35 3 57
35 4 28
35 5 34
35 6 3
35 7 36
35 8 32
35 9 24
35 10 44
35 11 53
35 12 27
35 13 36
35 14 53
35 15 1
35 16 8
35 17 22
35 18 19
35 19 55
35 20 24
35 21 47
35 22 22
35 23 30
35 24 59
35 25 40
35 26 39
35 27 15
35 28 34
35 29 18
35 30 51
35 31 43
35 32 26
35 33 14
35 34 38
36 0 30
36 1 56
36 2 40
36 3 53
36 4 11
36 5 5
36 6 5
36 7 45
36 8 2
36 9 60
36 10 48
36 11 15
36 12 26
36 13 54
36 14 5
36 15 21
36 16 32
36 17 55
36 18 47
36 19 58
36 20 28
36 21 60
36 22 30
36 23 4
36 24 5
36 25 36
36 26 60
36 27 55
36 28 11
36 29 47
36 30 11
36 31 15
36 32 32
36 33 21
36 34 57
36 35 38
37 0 14
37 1 37
37 2 42
37 3 39
37 4 22
37 5 22
37 6 21
37 7 28
37 8 40
37 9 49
37 10 3
37 11 55
37 12 52
37 13 45
37 14 4
37 15 7
37 16 2
37 17 17
37 18 24
37 19 28
37 20 47
37 21 30
37 22 15
37 23 27
37 24 25
37 25 26
37 26 17
37 27 14
37 28 15
37 29 51
37 30 18
37 31 39
37 32 46
37 33 45
37 34 52
37 35 35
37 36 18
38 0 43
38 1 58
38 2 49
38 3 15
38 4 32
38 5 41
38 6 14
38 7 29
38 8 30
38 9 26
38 10 37
38 11 50
38 12 28
38 13 28
38 14 28
38 15 15
38 16 49
38 17 27
38 18 40
38 19 55
38 20 16
38 21 26
38 22 2
38 23 20
38 24 49
38 25 27
38 26 48
38 27 17
38 28 4
38 29 39
38 30 40
38 31 57
38 32 22
38 33 42
38 34 7
38 35 57
38 36 6
38 37 48
39 0 6
39 1 53
39 2 40
39 3 28
39 4 59
39 5 26
39 6 60
39 7 9
39 8 43
39 9 32
39 10 53
39 11 14
39 12 36
39 13 53
39 14 17
39 15 51
39 16 48
39 17 51
39 18 15
39 19 50
39 20 47
39 21 37
39 22 37
39 23 24
39 24 16
39 25 2
39 26 3
39 27 47
39 28 12
39 29 36
39 30 19
39 31 33
39 32 8
39 33 24
39 34 7
39 35 27
39 36 45
39 37 12
39 38 24
40 0 14
40 1 26
40 2 46
40 3 16
40 4 23
40 5 28
40 6 1
40 7 58
40 8 4
40 9 47
40 10 6
40 11 14
40 12 30
40 13 37
40 14 54
40 15 19
40 16 47
40 17 30
40 18 49
40 19 27
40 20 33
40 21 16
40 22 1
40 23 12
40 24 17
40 25 20
40 26 7
40 27 27
40 28 14
40 29 59
40 30 15
40 31 45
40 32 40
40 33 43
40 34 2
40 35 5
40 36 46
40 37 4
40 38 32
40 39 42
41 0 43
41 1 47
41 2 39
41 3 14
41 4 5
41 5 60
41 6 27
41 7 18
41 8 31
41 9 34
41 10 57
41 11 31
41 12 18
41 13 19
41 14 58
41 15 21
41 16 28
41 17 21
41 18 44
41 19 26
41 20 6
41 21 37
41 22 19
41 23 6
41 24 30
41 25 1
41 26 17
41 27 28
41 28 10
41 29 11
41 30 56
41 31 11
41 32 35
41 33 28
41 34 7
41 35 37
41 36 34
41 37 44
41 38 39
41 39 20
41 40 26
42 0 15
42 1 25
42 2 54
42 3 19
42 4 32
42 5 1
42 6 24
42 7 36
42 8 2
42 9 33
42 10 21
42 11 48
42 12 54
42 13 41
42 14 52
42 15 47
42 16 29
42 17 17
42 18 58
42 19 15
42 20 2
42 21 2
42 22 48
42 23 23
42 24 54
42 25 9
42 26 60
42 27 20
42 28 6
42 29 54
42 30 18
42 31 17
42 32 11
42 33 26
42 34 23
42 35 40
42 36 44
42 37 25
42 38 21
42 39 7
42 40 42
42 41 16
43 0 30
43 1 19
43 2 48
43 3 4
43 4 11
43 5 29
43 6 23
43 7 26
43 8 56
43 9 29
43 10 37
43 11 49
43 12 3
43 13 43
43 14 49
43 15 17
43 16 39
43 17 2
43 18 19
43 19 29
43 20 31
43 21 43
43 22 23
43 23 22
43 24 15
43 25 8
43 26 43
43 27 5
43 28 4
43 29 17
43 30 38
43 31 59
43 32 30
43 33 52
43 34 22
43 35 33
43 36 25
43 37 21
43 38 35
43 39 45
43 40 56
43 41 59
43 42 10
44 0 21
44 1 60
44 2 59
44 3 7
44 4 54
44 5 57
44 6 25
44 7 55
44 8 30
44 9 10
44 10 8
44 11 38
44 12 36
44 13 44
44 14 9
44 15 44
44 16 28
44 17 36
44 18 6
44 19 29
44 20 5
44 21 46
44 22 47
44 23 13
44 24 28
44 25 27
44 26 55
44 27 50
44 28 45
44 29 12
44 30 26
44 31 30
44 32 40
44 33 35
44 34 18
44 35 17
44 36 5
44 37 43
44 38 19
44 39 9
44 40 45
44 41 45
44 42 36
44 43 48
45 0 29
45 1 23
45 2 40
45 3 49
45 4 26
45 5 41
45 6 15
45 7 37
45 8 6
45 9 55
45 10 24
45 11 50
45 12 19
45 13 10
45 14 18
45 15 16
45 16 21
45 17 57
45 18 4
45 19 30
45 20 42
45 21 6
45 22 23
45 23 41
45 24 32
45 25 39
45 26 34
45 27 24
45 28 39
45 29 24
45 30 47
45 31 21
45 32 14
45 33 27
45 34 7
45 35 17
45 36 12
45 37 3
45 38 58
45 39 33
45 40 39
45 41 8
45 42 57
45 43 5
45 44 41
46 0 53
46 1 9
46 2 47
46 3 46
46 4 52
46 5 28
46 6 30
46 7 11
46 8 36
46 9 25
46 10 6
46 11 32
46 12 47
46 13 50
46 14 35
46 15 10
46 16 23
46 17 48
46 18 42
46 19 50
46 20 24
46 21 14
46 22 3
46 23 15
46 24 51
46 25 55
46 26 23
46 27 22
46 28 36
46 29 33
46 30 33
46 31 8
46 32 39
46 33 35
46 34 25
46 35 27
46 36 30
46 37 31
46 38 37
46 39 34
46 40 15
46 41 4
46 42 4
46 43 47
46 44 49
46 45 35
47 0 32
47 1 41
47 2 27
47 3 13
47 4 38
47 5 53
47 6 11
47 7 4
47 8 4
47 9 12
47 10 10
47 11 10
47 12 12
47 13 44
47 14 53
47 15 60
47 16 58
47 17 4
47 18 46
47 19 2
47 20 47
47 21 58
47 22 35
47 23 21
47 24 14
47 25 53
47 26 47
47 27 17
47 28 17
47 29 19
47 30 33
47 31 58
47 32 29
47 33 54
47 34 16
47 35 52
47 36 43
47 37 38
47 38 44
47 39 46
47 40 47
47 41 46
47 42 15
47 43 3
47 44 26
47 45 5
47 46 22
